objective value:                                   -3
t_n_16                                              1 	(obj:-1)
t_n_1023                                            1 	(obj:-1)
t_n_1656                                            1 	(obj:-1)
